\ LP format - for model browsing. Use MPS format to capture full model detail.
Minimize
  I24(1)
Subject To
 c0: B0(9) + B1(9) = 1
 c1: B2(8) + B3(8) = 1
 c2: B4(9) + B5(9) = 1
 c3: B6(8) + B7(8) = 1
 c4: - 65000 B0(9) + I16(10) <= 0
 c5: - 65000 B1(9) + I17(10) <= 0
 c6: - 65000 B2(8) + I18(11) <= 0
 c7: - 65000 B3(8) + I19(11) <= 0
 c8: - 65000 B4(9) + I20(10) <= 0
 c9: - 65000 B5(9) + I21(10) <= 0
 c10: - 65000 B6(8) + I22(11) <= 0
 c11: - 65000 B7(8) + I23(11) <= 0
 c12: - 25 B0(9) - 37 B1(9) - I16(10) - I17(10) + I18(11) + I19(11) >= 0
 c13: - 65025 B0(9) - 37 B1(9) - 65000 B2(8) - I16(10) - I17(10) + I18(11)
   + I19(11) >= -129997
 c14: - 25 B0(9) - 65037 B1(9) - 65000 B3(8) - I16(10) - I17(10) + I18(11)
   + I19(11) >= -129997
 c15: - 45 B4(9) - 65 B5(9) - I20(10) - I21(10) + I22(11) + I23(11) >= 0
 c16: - 65045 B4(9) - 65 B5(9) - 65000 B6(8) - I20(10) - I21(10) + I22(11)
   + I23(11) >= -129996
 c17: - 45 B4(9) - 65065 B5(9) - 65000 B7(8) - I20(10) - I21(10) + I22(11)
   + I23(11) >= -129996
 c18: - 65000 B0(9) - 65000 B4(9) - 65000 B8(2) + I16(10) - I20(10)
   >= -194952
 c19: - 65000 B0(9) - 65000 B4(9) + 65000 B8(2) - I16(10) + I20(10)
   >= -129971
 c20: - 65000 B1(9) - 65000 B5(9) - 65000 B9(2) + I17(10) - I21(10)
   >= -194932
 c21: - 65000 B1(9) - 65000 B5(9) + 65000 B9(2) - I17(10) + I21(10)
   >= -129959
 c22: - 65000 B0(9) - 65000 B6(8) - 65000 B10(2) + I16(10) - I22(11)
   >= -194975
 c23: - 65000 B0(9) - 65000 B6(8) + 65000 B10(2) - I16(10) + I22(11)
   >= -129971
 c24: - 65000 B1(9) - 65000 B7(8) - 65000 B11(2) + I17(10) - I23(11)
   >= -194932
 c25: - 65000 B1(9) - 65000 B7(8) + 65000 B11(2) - I17(10) + I23(11)
   >= -129960
 c26: - 65000 B2(8) - 65000 B4(9) - 65000 B12(2) + I18(11) - I20(10)
   >= -194952
 c27: - 65000 B2(8) - 65000 B4(9) + 65000 B12(2) - I18(11) + I20(10)
   >= -129964
 c28: - 65000 B3(8) - 65000 B5(9) - 65000 B13(2) + I19(11) - I21(10)
   >= -194932
 c29: - 65000 B3(8) - 65000 B5(9) + 65000 B13(2) - I19(11) + I21(10)
   >= -129973
 c30: - 65000 B2(8) - 65000 B6(8) - 65000 B14(2) + I18(11) - I22(11)
   >= -194975
 c31: - 65000 B2(8) - 65000 B6(8) + 65000 B14(2) - I18(11) + I22(11)
   >= -129964
 c32: - 65000 B3(8) - 65000 B7(8) - 65000 B15(2) + I19(11) - I23(11)
   >= -194931
 c33: - 65000 B3(8) - 65000 B7(8) + 65000 B15(2) - I19(11) + I23(11)
   >= -129973
 c34: I16(10) >= 0
 c35: I16(10) >= 0
 c36: I17(10) >= 0
 c37: I17(10) >= 0
 c38: I18(11) >= 0
 c39: I18(11) >= 0
 c40: I19(11) >= 0
 c41: I19(11) >= 0
 c42: I20(10) >= 0
 c43: I20(10) >= 0
 c44: I21(10) >= 0
 c45: I21(10) >= 0
 c46: I22(11) >= 0
 c47: I22(11) >= 0
 c48: I23(11) >= 0
 c49: I23(11) >= 0
 c50: - 32 B2(8) - 24 B3(8) - 21 B6(8) - 65 B7(8) - I18(11) - I19(11)
   - I22(11) - I23(11) + I24(1) = 0
Bounds
Binaries
 B0(9) B1(9) B2(8) B3(8) B4(9) B5(9) B6(8) B7(8) B8(2) B9(2) B10(2) B11(2)
 B12(2) B13(2) B14(2) B15(2)
Generals
 I16(10) I17(10) I18(11) I19(11) I20(10) I21(10) I22(11) I23(11) I24(1)
End
